row=7;
column=7;
left=[17, 13, 0, 0, 12, 0, 0];
right=[13, 7, 0, 0, 17, 19, 21];
top=[17, 13, 7, 21, 16, 12, 8];
bottom=[7, 11, 13, 0, 18, 0, 0];
Board=[|0,0,0,0,0,5,0|6,0,0,0,0,0,0|2,0,0,0,0,0,0|0,4,0,0,7,6,5|0,0,2,0,1,0,0|0,0,0,7,0,0,0|0,0,0,4,0,0,0|]